1680145183067646591506,12,1,2,07,7,1,2,03,10,1,2,011,3,1,2,012,4,1,2,07,10,1,2,02,9,1,2,010,13,1,2,07,9,1,2,04,7,1,2,012,2,1,2,06,2,1,2,07,2,1,2,011,6,1,2,03,11,1,2,09,11,1,2,06,9,1,2,04,9,1,2,011,2,1,2,012,11,1,2,06,13,1,2,013,4,1,2,04,6,1,2,04,14,1,2,06,2,1,2,07,13,1,2,04,6,1,2,013,12,1,2,011,12,1,2,012,5,1,2,015,13,1,2,010,3,1,2,014,2,1,2,02,2,1,2,09,14,1,2,04,12,1,2,015,9,1,2,014,11,1,2,03,7,1,2,02,7,1,2,07,8,1,2,013,10,1,2,012,14,1,2,012,9,1,2,011,2,1,2,013,2,1,2,04,1,1,2,07,11,1,2,011,3,1,2,03,6,1,2,0